
Gurobi 6.5.2 (win64) logging started 07/24/16 17:35:07


Gurobi 6.5.2 (win64) logging started 07/24/16 17:35:07

Optimize a model with 2120 rows, 301 columns and 4469 nonzeros
Coefficient statistics:
  Matrix range    [1e+00, 1e+00]
  Objective range [2e+00, 4e+02]
  Bounds range    [1e+00, 1e+00]
  RHS range       [1e+00, 1e+00]
Found heuristic solution: objective 18
Presolve removed 2020 rows and 101 columns
Presolve time: 0.00s
Presolved: 100 rows, 200 columns, 724 nonzeros
Found heuristic solution: objective 1331.0000000
Variable types: 0 continuous, 200 integer (200 binary)

Root relaxation: objective 1.487000e+03, 126 iterations, 0.00 seconds

    Nodes    |    Current Node    |     Objective Bounds      |     Work
 Expl Unexpl |  Obj  Depth IntInf | Incumbent    BestBd   Gap | It/Node Time

*    0     0               0    1487.0000000 1487.00000  0.00%     -    0s

Explored 0 nodes (126 simplex iterations) in 0.00 seconds
Thread count was 8 (of 8 available processors)

Optimal solution found (tolerance 1.00e-04)
Best objective 1.487000000000e+03, best bound 1.487000000000e+03, gap 0.0%

Wrote requested result file 'H1\instance19\\Results19.lp'

